cliques=[{0,4,5,16,22,24,25},{1,2,7,18,20},{1,2,7,18,20},{0,3,13,19,33},{0,4,5,16,22,24,25},{0,4,5,16,22,24,25},{2,6,15,24},{1,2,7,18,20},{5,7,8,17},{9,10,16,34},{8,10,11,12,28,33},{1,4,11,26,27},{8,10,11,12,28,33},{0,3,13,19,33},{13,14,35},{2,6,15,24},{0,4,5,16,22,24,25},{5,7,8,17},{1,2,7,18,20},{0,3,13,19,33},{1,2,7,18,20},{9,19,21},{0,4,5,16,22,24,25},{15,17,23,26,29,34},{0,4,5,16,22,24,25},{0,4,5,16,22,24,25},{1,4,11,26,27},{1,4,11,26,27},{8,10,11,12,28,33},{12,21,25,29,30,32,35},{3,30},{6,27,31,32,36},{6,27,31,32,36},{0,3,13,19,33},{9,10,16,34},{12,21,25,29,30,32,35},{6,27,31,32,36}];
nr_cliques=37;
